.old/.old_results_backup1/sol/Fattahi_setup_14.sol
# Solution for model F-JSSP-SDST
# Objective value = 6904
B0(15) 0
B1(17) 1
B2(22) 0
B3(19) 1
B4(16) 0
B5(20) 1
B6(21) 0
B7(14) 0
B8(15) 0
B9(19) 1
B10(19) 0
B11(18) 0
B12(22) 1
B13(21) 0
B14(13) 1
B15(15) 0
B16(14) 0
B17(18) 1
B18(17) 1
B19(21) 0
B20(21) 0
B21(20) 1
B22(21) 0
B23(13) 0
B24(14) 0
B25(18) 1
B26(20) 0
B27(22) 1
B28(21) 0
B29(13) 1
B30(18) 0
B31(20) 0
B32(14) 1
B33(17) 0
B34(23) 0
B35(21) 1
B36(20) 0
B37(13) 1
B38(20) 0
B39(20) 0
B40(22) 1
B41(22) 0
B42(20) 1
B43(21) 0
B44(20) 0
B45(13) 0
B46(15) 1
B47(19) 0
B48(19) 0
B49(15) 1
B50(20) 1
B51(23) 0
B52(21) 0
B53(20) 1
B54(13) 0
B55(15) 0
B56(2) 0
B57(2) 0
B58(2) 0
B59(2) 1
B60(2) 0
B61(2) 1
B62(2) 1
B63(2) 1
B64(2) 1
B65(2) 1
B66(2) 0
B67(2) 0
B68(2) 1
B69(2) 0
B70(2) 1
B71(2) 0
B72(2) 1
B73(2) 0
B74(2) 1
B75(2) 0
B76(2) 0
B77(2) 0
B78(2) 0
B79(2) 0
B80(2) 1
B81(2) 0
B82(2) 1
B83(2) 0
B84(2) 0
B85(2) 0
B86(2) 1
B87(2) 0
B88(2) 0
B89(2) 1
B90(2) 0
B91(2) 1
B92(2) 0
B93(2) 0
B94(2) 0
B95(2) 0
B96(2) 0
B97(2) 0
B98(2) 0
B99(2) 1
B100(2) 1
B101(2) 0
B102(2) 0
B103(2) 0
B104(2) 0
B105(2) 0
B106(2) 0
B107(2) 0
B108(2) 0
B109(2) 0
B110(2) 0
B111(2) 0
B112(2) 0
B113(2) 1
B114(2) 0
B115(2) 0
B116(2) 0
B117(2) 0
B118(2) 0
B119(2) 0
B120(2) 0
B121(2) 0
B122(2) 0
B123(2) 0
B124(2) 0
B125(2) 0
B126(2) 1
B127(2) 0
B128(2) 0
B129(2) 1
B130(2) 0
B131(2) 1
B132(2) 0
B133(2) 0
B134(2) 0
B135(2) 0
B136(2) 0
B137(2) 0
B138(2) 0
B139(2) 0
B140(2) 1
B141(2) 0
B142(2) 0
B143(2) 0
B144(2) 0
B145(2) 0
B146(2) 1
B147(2) 0
B148(2) 0
B149(2) 0
B150(2) 0
B151(2) 0
B152(2) 0
B153(2) 0
B154(2) 0
B155(2) 1
B156(2) 0
B157(2) 0
B158(2) 0
B159(2) 0
B160(2) 1
B161(2) 0
B162(2) 0
B163(2) 0
B164(2) 0
B165(2) 0
B166(2) 0
B167(2) 0
B168(2) 0
B169(2) 0
B170(2) 0
B171(2) 0
B172(2) 0
B173(2) 0
B174(2) 0
B175(2) 0
B176(2) 0
B177(2) 0
B178(2) 0
B179(2) 0
B180(2) 1
B181(2) 0
B182(2) 1
B183(2) 1
B184(2) 0
B185(2) 0
B186(2) 0
B187(2) 0
B188(2) 0
B189(2) 0
B190(2) 0
B191(2) 0
B192(2) 0
B193(2) 0
B194(2) 0
B195(2) 1
B196(2) 0
B197(2) 0
B198(2) 1
B199(2) 0
B200(2) 0
B201(2) 1
B202(2) 0
B203(2) 0
B204(2) 0
B205(2) 0
B206(2) 0
B207(2) 0
B208(2) 0
B209(2) 1
B210(2) 1
B211(2) 0
B212(2) 0
B213(2) 0
B214(2) 0
B215(2) 0
B216(2) 0
B217(2) 0
B218(2) 0
B219(2) 0
B220(2) 0
B221(2) 0
B222(2) 1
B223(2) 0
B224(2) 0
B225(2) 0
B226(2) 0
B227(2) 0
B228(2) 0
B229(2) 0
B230(2) 0
B231(2) 0
B232(2) 0
B233(2) 0
B234(2) 0
B235(2) 0
B236(2) 0
B237(2) 0
B238(2) 0
B239(2) 0
B240(2) 0
B241(2) 0
B242(2) 0
B243(2) 0
B244(2) 0
B245(2) 0
B246(2) 0
B247(2) 0
B248(2) 0
B249(2) 0
C250(15) 0
C251(17) 156
C252(24) 0
C253(20) 399
C254(18) 0
C255(22) 529
C256(24) 0
C257(16) 0
C258(15) 0
C259(19) 0
C260(20) 0
C261(20) 0
C262(24) 170
C263(22) 0
C264(14) 276
C265(16) 0
C266(14) 0
C267(18) 0
C268(18) 62
C269(22) 0
C270(22) 0
C271(21) 285
C272(23) 0
C273(15) 0
C274(14) 0
C275(18) 74
C276(21) 0
C277(23) 189
C278(22) 0
C279(14) 387
C280(18) 0
C281(20) 0
C282(14) 0
C283(18) 0
C284(24) 0
C285(22) 128
C286(21) 0
C287(15) 175
C288(20) 0
C289(20) 0
C290(22) 0
C291(24) 0
C292(22) 162
C293(24) 0
C294(21) 0
C295(15) 0
C296(17) 285
C297(19) 0
C298(19) 0
C299(15) 142
C300(21) 300
C301(25) 0
C302(23) 0
C303(21) 424
C304(15) 0
C305(17) 0
C306(1) 6904
