.old/.old_results_backup1/log/Fattahi_setup_14.log

Gurobi 10.0.1 (win64) logging started Wed Apr 12 07:35:34 2023

Set parameter LogFile to value "results/log/Fattahi_setup_14.log"
Gurobi Optimizer version 10.0.1 build v10.0.1rc0 (win64)

CPU model: AMD Ryzen 7 3700X 8-Core Processor, instruction set [SSE2|AVX|AVX2]
Thread count: 8 physical cores, 16 logical processors, using up to 16 threads

Optimize a model with 547 rows, 307 columns and 2495 nonzeros
Model fingerprint: 0x92a0d0c7
Variable types: 57 continuous, 250 integer (250 binary)
Coefficient statistics:
  Matrix range     [1e+00, 1e+09]
  Objective range  [1e+00, 1e+00]
  Bounds range     [1e+00, 1e+00]
  RHS range        [1e+00, 3e+09]
Warning: Model contains large matrix coefficients
Warning: Model contains large rhs
         Consider reformulating model or setting NumericFocus parameter
         to avoid numerical issues.
Presolve removed 64 rows and 8 columns
Presolve time: 0.01s
Presolved: 483 rows, 299 columns, 2881 nonzeros
Variable types: 56 continuous, 243 integer (243 binary)
Found heuristic solution: objective 14199.000000
Found heuristic solution: objective 10794.999894

Root relaxation: objective 5.114065e+03, 78 iterations, 0.00 seconds (0.00 work units)

    Nodes    |    Current Node    |     Objective Bounds      |     Work
 Expl Unexpl |  Obj  Depth IntInf | Incumbent    BestBd   Gap | It/Node Time

     0     0 5114.06460    0   35 10794.9999 5114.06460  52.6%     -    0s
H    0     0                    9860.0000000 5114.06460  48.1%     -    0s
     0     0 5128.00001    0   30 9860.00000 5128.00001  48.0%     -    0s
H    0     0                    9103.0000000 5128.00001  43.7%     -    0s
     0     0 5128.00001    0   30 9103.00000 5128.00001  43.7%     -    0s
     0     0 5219.12464    0   31 9103.00000 5219.12464  42.7%     -    0s
H    0     0                    8910.9999936 5219.12464  41.4%     -    0s
     0     0 5295.02854    0   29 8910.99999 5295.02854  40.6%     -    0s
     0     0 5295.79472    0   29 8910.99999 5295.79472  40.6%     -    0s
     0     0 5295.79472    0   29 8910.99999 5295.79472  40.6%     -    0s
     0     0 5329.37314    0   24 8910.99999 5329.37314  40.2%     -    0s
H    0     0                    8676.0000000 5329.37314  38.6%     -    0s
     0     0 5335.95522    0   28 8676.00000 5335.95522  38.5%     -    0s
     0     0 5336.69033    0   26 8676.00000 5336.69033  38.5%     -    0s
     0     0 5337.34245    0   27 8676.00000 5337.34245  38.5%     -    0s
     0     0 5355.92184    0   33 8676.00000 5355.92184  38.3%     -    0s
     0     0 5361.46620    0   33 8676.00000 5361.46620  38.2%     -    0s
     0     0 5361.46620    0   31 8676.00000 5361.46620  38.2%     -    0s
H    0     0                    8304.9999967 5361.46620  35.4%     -    0s
     0     0 5373.71092    0   35 8305.00000 5373.71092  35.3%     -    0s
H    0     0                    8131.9999988 5373.71092  33.9%     -    0s
     0     0 5374.94375    0   36 8132.00000 5374.94375  33.9%     -    0s
     0     0 5375.73069    0   36 8132.00000 5375.73069  33.9%     -    0s
     0     0 5375.73069    0   37 8132.00000 5375.73069  33.9%     -    0s
H    0     0                    8098.9999905 5375.73069  33.6%     -    0s
H    0     0                    7703.0000006 5390.36936  30.0%     -    0s
     0     0 5390.36936    0   35 7703.00000 5390.36936  30.0%     -    0s
H    0     0                    7702.9999976 5398.52614  29.9%     -    0s
     0     0 5398.52614    0   36 7703.00000 5398.52614  29.9%     -    0s
     0     0 5403.63171    0   35 7703.00000 5403.63171  29.9%     -    0s
H    0     0                    7702.9999965 5404.06687  29.8%     -    0s
     0     0 5404.06687    0   37 7703.00000 5404.06687  29.8%     -    0s
     0     0 5407.66315    0   38 7703.00000 5407.66315  29.8%     -    0s
     0     0 5407.70722    0   38 7703.00000 5407.70722  29.8%     -    0s
H    0     0                    7702.9999951 5407.70722  29.8%     -    0s
     0     0 5428.06778    0   31 7703.00000 5428.06778  29.5%     -    0s
     0     0 5428.67411    0   30 7703.00000 5428.67411  29.5%     -    0s
     0     0 5428.67411    0   30 7703.00000 5428.67411  29.5%     -    0s
     0     0 5449.54607    0   34 7703.00000 5449.54607  29.3%     -    0s
     0     0 5450.38621    0   35 7703.00000 5450.38621  29.2%     -    0s
     0     0 5450.38621    0   34 7703.00000 5450.38621  29.2%     -    0s
     0     0 5456.77853    0   30 7703.00000 5456.77853  29.2%     -    0s
     0     0 5456.77853    0   32 7703.00000 5456.77853  29.2%     -    0s
     0     0 5457.02249    0   31 7703.00000 5457.02249  29.2%     -    0s
     0     0 5459.85966    0   32 7703.00000 5459.85966  29.1%     -    0s
     0     0 5459.85966    0   32 7703.00000 5459.85966  29.1%     -    0s
     0     0 5468.62941    0   31 7703.00000 5468.62941  29.0%     -    0s
     0     0 5469.12391    0   28 7703.00000 5469.12391  29.0%     -    0s
     0     0 5469.12391    0   29 7703.00000 5469.12391  29.0%     -    0s
     0     0 5469.12391    0   30 7703.00000 5469.12391  29.0%     -    0s
     0     0 5469.12391    0   30 7703.00000 5469.12391  29.0%     -    0s
     0     0 5469.12391    0   30 7703.00000 5469.12391  29.0%     -    0s
     0     0 5469.12391    0   28 7703.00000 5469.12391  29.0%     -    0s
     0     2 5469.12391    0   27 7703.00000 5469.12391  29.0%     -    0s
H   76    80                    7702.9999937 5558.03125  27.8%  12.5    0s
H   82    92                    7509.0000000 5558.03125  26.0%  11.9    0s
H  115   138                    7508.9999928 5558.03125  26.0%  10.2    0s
H  127   138                    7356.0000000 5558.03125  24.4%   9.8    0s
H  133   138                    7355.9999992 5558.03125  24.4%   9.6    0s
H  171   196                    7355.9999930 5558.03125  24.4%   8.9    0s
*  736   505              35    7269.0000003 5635.52181  22.5%   6.1    0s
*  743   504              39    7257.0000002 5635.52181  22.3%   6.0    0s
H 2043   941                    7256.9999952 5671.31877  21.9%   5.5    0s
H 3632  1485                    7256.9999934 5686.98322  21.6%   5.2    0s
H 4236  1435                    7256.9999919 5699.22105  21.5%   5.4    1s
H 4268  1401                    7236.9999976 5699.22105  21.2%   5.6    1s
H 4275  1330                    7236.9999962 5699.22105  21.2%   5.7    1s
H 4319  1298                    7226.9999994 5699.22105  21.1%   5.7    1s
H 4321  1237                    7185.0000000 5699.22105  20.7%   5.8    1s
H 4328  1175                    7184.9999992 5699.22105  20.7%   5.8    1s
H 4382  1162                    7184.9999976 5699.22105  20.7%   5.8    1s
H 5581  1354                    7184.9999962 5706.10524  20.6%   6.1    1s
H 5631  1287                    7100.9999983 5718.08710  19.5%   6.1    1s
H 5699  1216                    7090.9999983 5718.08710  19.4%   6.1    1s
H 8338  1648                    7090.9999976 5925.84584  16.4%   6.7    1s
H10689  2253                    7090.9999960 6039.17059  14.8%   6.9    1s
*22221  4173              60    7003.9999998 6413.61531  8.43%   7.2    2s
*25205  4249              56    6987.9999997 6483.49082  7.22%   7.2    2s
H26987  4462                    6987.9999973 6522.20632  6.67%   7.2    2s
H27418  4462                    6987.9999966 6526.61140  6.60%   7.2    2s
*28092  4225              59    6948.9999999 6541.62189  5.86%   7.1    2s
*37924  4974              62    6904.0000000 6638.70688  3.84%   6.8    2s
H39159  5043                    6903.9999984 6649.99352  3.68%   6.7    2s
H40776  5154                    6903.9999976 6660.77184  3.52%   6.7    3s
 67647  5027 6776.46233   48    4 6904.00000 6758.97779  2.10%   6.3    5s

Cutting planes:
  Learned: 2
  Gomory: 26
  Implied bound: 10
  MIR: 43
  Flow cover: 184
  Inf proof: 6
  RLT: 6
  Relax-and-lift: 4

Explored 90970 nodes (565979 simplex iterations) in 6.08 seconds (3.52 work units)
Thread count was 16 (of 16 available processors)

Solution count 10: 6904 6904 6904 ... 7091

Optimal solution found (tolerance 1.00e-04)
Best objective 6.904000000000e+03, best bound 6.903999997642e+03, gap 0.0000%
Warning: variable name "y[job:0, stage:0, machine:1]" has a space
Warning: constraint name "precedence between 1,0 to 0,0 if x_[j,l,h,z,i]=1" has a space
Warning: to let Gurobi read it back, use rlp format
Warning: variable name "y[job:0, stage:0, machine:1]" has a space
Warning: constraint name "precedence between 1,0 to 0,0 if x_[j,l,h,z,i]=1" has a space
Warning: default variable names used to write mps file
Warning: default constraint names used to write mps file
Warning: variable name "y[job:0, stage:0, machine:1]" has a space
Warning: default variable names used to write solution file
